p cnf 17 21                 
-3 -2 -4 0
4 -6 0
2 3 -5 0
5 -6 0
-2 -7 0
3 -7 0
2 -3 7 0
-1 7 -8 0
1 -7 -8 0
7 -7 -8 0
1 -10 0
-3 -9 0
2 -9 0
9 -10 0
-1 -7 13 0
-13 -14 0
7 -14 0
10 14 -16 0
6 0
8 0
16 0
